RT is False
Default write of storage_offers_DA.csv just to have a file (but constraint should be inactive)
Reading model...
...model read.
creating competitive generators file...
...competitive generators recorded.
Loading data...
.. day-ahead data with real-time VRE data read.
Compiling instance...
...instance created.
Creating Offer Mitigation (model will solve as dispatch if TRUE)...
NOTE: storage offers will not be mitigated
...storage offer mitigation file created
Converting model to MPEC...
...converted
NOTE: initial MIP solve with only storage competitive to get feasible solution
Solving...

Welcome to IBM(R) ILOG(R) CPLEX(R) Interactive Optimizer 12.9.0.0
  with Simplex, Mixed Integer & Barrier Optimizers
5725-A06 5725-A29 5724-Y48 5724-Y49 5724-Y54 5724-Y55 5655-Y21
Copyright IBM Corp. 1988, 2019.  All Rights Reserved.

Type 'help' for a list of available commands.
Type 'help' followed by a command name for more
information on commands.

CPLEX> Logfile 'cplex.log' closed.
Logfile 'C:\Users\Luke\Desktop\test919\logs\tmp27dnf9wt.cplex.log' open.
CPLEX> New value for parallel optimization mode: -1
CPLEX> New value for mixed integer optimality gap tolerance: 0.01
CPLEX> New value for integrality tolerance: 1e-09
CPLEX> New value for feasibility tolerance: 0.01
CPLEX> New value for deterministic time limit in ticks: 75000
CPLEX> Problem 'C:\Users\Luke\Desktop\test919\logs\tmpcupj_7qc.pyomo.lp' read.
Read time = 0.20 sec. (14.73 ticks)
CPLEX> Problem name         : C:\Users\Luke\Desktop\test919\logs\tmpcupj_7qc.pyomo.lp
Objective sense      : Maximize
Variables            :   53805  [Nneg: 1,  Box: 22000,  Free: 4464,
                                 Binary: 27340]
Objective nonzeros   :    9076
Linear constraints   :  123205  [Less: 41346,  Greater: 59096,  Equal: 22763]
  Nonzeros           :  291703
  RHS nonzeros       :   67489

Variables            : Min LB: -5000.000        Max UB: 1000000.       
Objective nonzeros   : Min   : 0.7833333        Max   : 2500.000       
Linear constraints   :
  Nonzeros           : Min   : 0.7833333        Max   : 1000000.       
  RHS nonzeros       : Min   : 0.7833333        Max   : 1000000.       
CPLEX> CPXPARAM_Parallel                                -1
CPXPARAM_Simplex_Tolerances_Feasibility          0.01
CPXPARAM_DetTimeLimit                            75000
CPXPARAM_MIP_Tolerances_MIPGap                   0.01
CPXPARAM_MIP_Tolerances_Integrality              1.0000000000000001e-09
Tried aggregator 3 times.
MIP Presolve eliminated 88789 rows and 19137 columns.
MIP Presolve added 3346 rows and 0 columns.
MIP Presolve modified 24748 coefficients.
Aggregator did 12932 substitutions.
Reduced MIP has 24830 rows, 21180 columns, and 70785 nonzeros.
Reduced MIP has 8378 binaries, 0 generals, 0 SOSs, and 0 indicators.
Presolve time = 0.25 sec. (175.86 ticks)
Probing fixed 418 vars, tightened 2898 bounds.
Probing time = 1.42 sec. (909.29 ticks)
Tried aggregator 2 times.
MIP Presolve eliminated 948 rows and 838 columns.
MIP Presolve modified 2232 coefficients.
Aggregator did 44 substitutions.
Reduced MIP has 23838 rows, 20298 columns, and 67919 nonzeros.
Reduced MIP has 7959 binaries, 0 generals, 0 SOSs, and 0 indicators.
Presolve time = 0.09 sec. (66.32 ticks)
Probing time = 0.03 sec. (16.31 ticks)
Clique table members: 6371.
MIP emphasis: balance optimality and feasibility.
MIP search method: dynamic search.
Parallel mode: opportunistic, using up to 24 threads.
Root relaxation solution time = 0.47 sec. (605.39 ticks)

        Nodes                                         Cuts/
   Node  Left     Objective  IInf  Best Integer    Best Bound    ItCnt     Gap

      0     0      -18.6892  1029                    -18.6892     4230         
      0     0      -18.6892    24                    Cuts: 19     4238         
      0     0      -18.6892    20                 Flowcuts: 6     4241         
      0     4    infeasible                       Impl Bds: 6     6029         
Elapsed time = 8.38 sec. (4743.59 ticks, tree = 0.02 MB, solutions = 0)
*   274+  118                       -13691.7417      -18.6892            99.86%
*   485   132      integral     0   -12553.1878      -18.6892     7440   99.85%
*   568   145      integral     0   -10239.7983      -18.6892     7599   99.82%
    606   192   -11639.7923    16   -10239.7983      -18.6892     8538   99.82%
*   836   131      integral     0    -6708.3599      -18.6892    11892   99.72%
*   867   112      integral     0    -6416.9807      -18.6892    12149   99.71%
   1020   129        cutoff          -6416.9807      -18.6892    12170   99.71%
   1273   116    -4573.6874     6    -6086.8124      -18.6892    12499   99.69%
   1529   143    -5360.2663     1    -5446.3997      -18.6892    12853   99.66%
*  1764   167      integral     0     -734.8037      -18.6892    13935   97.46%
   1977   186    -5354.4644     1     -734.8037      -38.0771    13429   94.82%
   2351    60     -205.5701     4     -734.8037      -72.3101    15660   90.16%
   2873    63     -320.2959     1     -734.8037     -106.6692    16673   85.48%
   3298   337        cutoff           -734.8037     -106.6692    18750   85.48%
*  3737   562      integral     0     -374.7148     -107.1299    20132   71.41%
   4830   100     -351.7901     5     -374.7148     -337.0519    27277   10.05%
Elapsed time = 16.22 sec. (7808.28 ticks, tree = 0.61 MB, solutions = 14)
   5732   131     -355.7131     4     -374.7148     -339.7886    28254    9.32%
   6475   284        cutoff           -374.7148     -339.7886    35989    9.32%
   7085   388        cutoff           -374.7148     -339.7886    36745    9.32%
   7553   814        cutoff           -374.7148     -339.7886    45462    9.32%

GUB cover cuts applied:  1
Cover cuts applied:  1
Implied bound cuts applied:  5
Flow cuts applied:  5
Mixed integer rounding cuts applied:  2
Zero-half cuts applied:  1
Gomory fractional cuts applied:  8

Root node processing (before b&c):
  Real time             =    7.05 sec. (4708.13 ticks)
Parallel b&c, 24 threads:
  Real time             =   19.84 sec. (9793.18 ticks)
  Sync time (average)   =    2.92 sec.
  Wait time (average)   =    0.03 sec.
                          ------------
Total (root+branch&cut) =   26.89 sec. (14501.31 ticks)

Solution pool: 14 solutions saved.

MIP - Integer optimal solution:  Objective = -3.7471478057e+02
Solution time =   26.91 sec.  Iterations = 45998  Nodes = 7601
Deterministic time = 14501.46 ticks  (538.97 ticks/sec)

CPLEX> Incumbent solution written to file 'C:\Users\Luke\Desktop\test919\logs\tmp6n4zie5c.cplex.sol'.
CPLEX> NOTE: no warmstart specified for MIP iteration, default behavior is true
NOTE: resolving with all competitive generators using storage-only solution to warmstart
Solving...

Welcome to IBM(R) ILOG(R) CPLEX(R) Interactive Optimizer 12.9.0.0
  with Simplex, Mixed Integer & Barrier Optimizers
5725-A06 5725-A29 5724-Y48 5724-Y49 5724-Y54 5724-Y55 5655-Y21
Copyright IBM Corp. 1988, 2019.  All Rights Reserved.

Type 'help' for a list of available commands.
Type 'help' followed by a command name for more
information on commands.

CPLEX> Logfile 'cplex.log' closed.
Logfile 'C:\Users\Luke\Desktop\test919\logs\tmp7ja7bpup.cplex.log' open.
CPLEX> New value for parallel optimization mode: -1
CPLEX> New value for mixed integer optimality gap tolerance: 0.01
CPLEX> New value for integrality tolerance: 1e-09
CPLEX> New value for feasibility tolerance: 0.01
CPLEX> New value for deterministic time limit in ticks: 75000
CPLEX> Problem 'C:\Users\Luke\Desktop\test919\logs\tmp_f55zl9b.pyomo.lp' read.
Read time = 0.22 sec. (14.75 ticks)
CPLEX> MIP start file 'C:\Users\Luke\Desktop\test919\logs\tmp66ajykgu.cplex.mst' read.
CPLEX> Problem name         : C:\Users\Luke\Desktop\test919\logs\tmp_f55zl9b.pyomo.lp
Objective sense      : Maximize
Variables            :   54525  [Nneg: 1,  Box: 22720,  Free: 4464,
                                 Binary: 27340]
Objective nonzeros   :    9796
Linear constraints   :  123205  [Less: 41346,  Greater: 59096,  Equal: 22763]
  Nonzeros           :  291703
  RHS nonzeros       :   67489

Variables            : Min LB: -5000.000        Max UB: 1000000.       
Objective nonzeros   : Min   : 0.7833333        Max   : 2500.000       
Linear constraints   :
  Nonzeros           : Min   : 0.7833333        Max   : 1000000.       
  RHS nonzeros       : Min   : 0.7833333        Max   : 1000000.       
CPLEX> CPXPARAM_Parallel                                -1
CPXPARAM_Simplex_Tolerances_Feasibility          0.01
CPXPARAM_DetTimeLimit                            75000
CPXPARAM_MIP_Tolerances_MIPGap                   0.01
CPXPARAM_MIP_Tolerances_Integrality              1.0000000000000001e-09
Warning:  No solution found from 1 MIP starts.
Retaining values of one MIP start for possible repair.
Tried aggregator 3 times.
MIP Presolve eliminated 88789 rows and 19857 columns.
MIP Presolve added 3346 rows and 0 columns.
MIP Presolve modified 24748 coefficients.
Aggregator did 12932 substitutions.
Reduced MIP has 24830 rows, 21180 columns, and 70785 nonzeros.
Reduced MIP has 8378 binaries, 0 generals, 0 SOSs, and 0 indicators.
Presolve time = 0.23 sec. (176.23 ticks)
Probing fixed 418 vars, tightened 2898 bounds.
Probing time = 1.47 sec. (909.29 ticks)
Tried aggregator 2 times.
MIP Presolve eliminated 948 rows and 838 columns.
MIP Presolve modified 2232 coefficients.
Aggregator did 44 substitutions.
Reduced MIP has 23838 rows, 20298 columns, and 67919 nonzeros.
Reduced MIP has 7959 binaries, 0 generals, 0 SOSs, and 0 indicators.
Presolve time = 0.09 sec. (66.32 ticks)
Probing time = 0.03 sec. (16.31 ticks)
Clique table members: 6371.
MIP emphasis: balance optimality and feasibility.
MIP search method: dynamic search.
Parallel mode: opportunistic, using up to 24 threads.
Root relaxation solution time = 0.47 sec. (605.39 ticks)

        Nodes                                         Cuts/
   Node  Left     Objective  IInf  Best Integer    Best Bound    ItCnt     Gap

      0     0      -18.6892  1029                    -18.6892     4230         
      0     0      -18.6892    24                    Cuts: 19     4238         
      0     0      -18.6892    20                 Flowcuts: 6     4241         
Repair heuristic found nothing.
      0     2    infeasible                       Impl Bds: 4     5303         
Elapsed time = 8.58 sec. (4767.78 ticks, tree = 0.02 MB, solutions = 0)
    346    87   -31005.1508     4                    -18.6892     6710         
*   510+  336                       -13691.7417      -18.6892            99.86%
*   520   211      integral     0   -13691.7417      -18.6892     7918   99.86%
*   528   280      integral     0   -12770.4765      -18.6892     8685   99.85%
    806   203    -6767.7809     5    -7151.1191      -18.6892    13176   99.74%
*   819   236      integral     0    -6503.1141      -18.6892    13137   99.71%
*  1062   103      integral     0    -4762.1930      -18.6892    13664   99.61%
   1152    80    -6416.9807     6    -4762.1930      -18.6892    13763   99.61%
   1534    66     -930.8067     1     -734.8037      -86.2044    14487   88.27%
   1936    59        cutoff           -734.8037      -86.9740    23055   88.16%
   2427    94     -549.8061     1     -734.8037     -141.3220    23862   80.77%
*  2723    90      integral     0     -468.9612     -278.7704    25288   40.56%
   2906   202     -681.3084     1     -468.9612     -337.1520    26716   28.11%
   3311   257     -703.2646     6     -468.9612     -338.7683    27762   27.76%
*  3338   244      integral     0     -468.9612     -338.7683    27209   27.76%

Implied bound cuts applied:  8
Flow cuts applied:  12
Gomory fractional cuts applied:  6

Root node processing (before b&c):
  Real time             =    7.31 sec. (4755.07 ticks)
Parallel b&c, 24 threads:
  Real time             =    6.52 sec. (2240.66 ticks)
  Sync time (average)   =    1.46 sec.
  Wait time (average)   =    0.00 sec.
                          ------------
Total (root+branch&cut) =   13.83 sec. (6995.73 ticks)

Solution pool: 21 solutions saved.

MIP - Integer optimal solution:  Objective = -4.6896119863e+02
Solution time =   13.84 sec.  Iterations = 31146  Nodes = 3363
Deterministic time = 6995.88 ticks  (505.34 ticks/sec)

CPLEX> Incumbent solution written to file 'C:\Users\Luke\Desktop\test919\logs\tmp2bqtzky2.cplex.sol'.
CPLEX> Exporting results... 
